Cost: 474
0-18-13-41-4-0
0-27-1-32-46-0
0-48-8-26-31-28-0
0-11-50-34-9-38-0
0-5-49-10-45-15-0
0-23-43-24-25-14-0
0-12-44-42-17-47-0
Cost: 474
0-12-44-42-17-47-0
0-38-9-34-50-11-0
0-5-49-10-45-15-0
0-27-1-32-46-0
0-48-8-26-31-28-0
0-18-41-13-25-0
0-6-23-43-24-14-0
Cost: 474
0-18-13-41-4-0
0-27-1-32-46-0
0-48-8-26-31-28-0
0-11-50-34-9-38-0
0-5-49-10-45-15-0
0-23-43-24-25-14-0
0-12-44-42-17-47-0
Cost: 474
0-23-43-24-25-14-0
0-11-50-34-9-38-0
0-4-41-13-18-0
0-15-45-10-49-5-0
0-28-31-26-8-48-0
0-46-32-1-27-0
0-47-17-42-44-12-0
Cost: 474
0-15-45-10-49-5-0
0-38-9-34-50-11-0
0-47-17-42-44-12-0
0-28-31-26-8-48-0
0-14-24-43-23-6-0
0-18-41-13-25-0
0-46-32-1-27-0
Cost: 474
0-5-49-10-45-15-0
0-38-9-34-50-11-0
0-4-41-13-18-0
0-12-44-42-17-47-0
0-48-8-26-31-28-0
0-27-1-32-46-0
0-23-43-24-25-14-0
Cost: 474
0-18-13-41-4-0
0-47-17-42-44-12-0
0-27-1-32-46-0
0-5-49-10-45-15-0
0-23-43-24-25-14-0
0-48-8-26-31-28-0
0-38-9-34-50-11-0
Cost: 474
0-18-13-41-4-0
0-47-17-42-44-12-0
0-27-1-32-46-0
0-5-49-10-45-15-0
0-23-43-24-25-14-0
0-48-8-26-31-28-0
0-38-9-34-50-11-0
Cost: 474
0-18-13-41-4-0
0-47-17-42-44-12-0
0-27-1-32-46-0
0-5-49-10-45-15-0
0-23-43-24-25-14-0
0-48-8-26-31-28-0
0-38-9-34-50-11-0
Cost: 474
0-18-13-41-4-0
0-47-17-42-44-12-0
0-27-1-32-46-0
0-5-49-10-45-15-0
0-23-43-24-25-14-0
0-48-8-26-31-28-0
0-38-9-34-50-11-0
Cost: 474
0-18-13-41-4-0
0-47-17-42-44-12-0
0-27-1-32-46-0
0-5-49-10-45-15-0
0-23-43-24-25-14-0
0-48-8-26-31-28-0
0-38-9-34-50-11-0
Cost: 474
0-18-13-41-4-0
0-47-17-42-44-12-0
0-27-1-32-46-0
0-5-49-10-45-15-0
0-23-43-24-25-14-0
0-48-8-26-31-28-0
0-38-9-34-50-11-0
Cost: 474
0-18-13-41-4-0
0-47-17-42-44-12-0
0-27-1-32-46-0
0-5-49-10-45-15-0
0-23-43-24-25-14-0
0-48-8-26-31-28-0
0-38-9-34-50-11-0
Cost: 474
0-25-13-41-18-0
0-38-9-34-50-11-0
0-46-32-1-27-0
0-28-31-26-8-48-0
0-47-17-42-44-12-0
0-5-49-10-45-15-0
0-14-24-43-23-6-0
Cost: 474
0-18-13-41-4-0
0-47-17-42-44-12-0
0-27-1-32-46-0
0-5-49-10-45-15-0
0-23-43-24-25-14-0
0-48-8-26-31-28-0
0-38-9-34-50-11-0
Cost: 474
0-18-13-41-4-0
0-47-17-42-44-12-0
0-27-1-32-46-0
0-5-49-10-45-15-0
0-23-43-24-25-14-0
0-48-8-26-31-28-0
0-38-9-34-50-11-0
Cost: 474
0-18-13-41-4-0
0-47-17-42-44-12-0
0-27-1-32-46-0
0-5-49-10-45-15-0
0-23-43-24-25-14-0
0-48-8-26-31-28-0
0-38-9-34-50-11-0
Cost: 474
0-4-41-13-18-0
0-47-17-42-44-12-0
0-5-49-10-45-15-0
0-38-9-34-50-11-0
0-27-1-32-46-0
0-28-31-26-8-48-0
0-23-43-24-25-14-0
Cost: 474
0-5-49-10-45-15-0
0-18-13-41-4-0
0-12-44-42-17-47-0
0-48-8-26-31-28-0
0-11-50-34-9-38-0
0-46-32-1-27-0
0-23-43-24-25-14-0
Cost: 474
0-5-49-10-45-15-0
0-18-13-41-4-0
0-12-44-42-17-47-0
0-48-8-26-31-28-0
0-11-50-34-9-38-0
0-46-32-1-27-0
0-23-43-24-25-14-0
Cost: 474
0-46-32-1-27-0
0-48-8-26-31-28-0
0-47-17-42-44-12-0
0-11-50-34-9-38-0
0-18-13-41-4-0
0-23-43-24-25-14-0
0-5-49-10-45-15-0
Cost: 474
0-46-32-1-27-0
0-48-8-26-31-28-0
0-47-17-42-44-12-0
0-11-50-34-9-38-0
0-18-13-41-4-0
0-23-43-24-25-14-0
0-5-49-10-45-15-0
Cost: 474
0-18-41-13-25-0
0-46-32-1-27-0
0-12-44-42-17-47-0
0-15-45-10-49-5-0
0-6-23-43-24-14-0
0-38-9-34-50-11-0
0-28-31-26-8-48-0
Cost: 474
0-46-32-1-27-0
0-48-8-26-31-28-0
0-47-17-42-44-12-0
0-11-50-34-9-38-0
0-18-13-41-4-0
0-23-43-24-25-14-0
0-5-49-10-45-15-0
Cost: 474
0-4-41-13-18-0
0-47-17-42-44-12-0
0-5-49-10-45-15-0
0-38-9-34-50-11-0
0-27-1-32-46-0
0-28-31-26-8-48-0
0-23-43-24-25-14-0
Cost: 474
0-5-49-10-45-15-0
0-18-13-41-4-0
0-12-44-42-17-47-0
0-48-8-26-31-28-0
0-11-50-34-9-38-0
0-46-32-1-27-0
0-23-43-24-25-14-0
Cost: 474
0-14-24-43-23-6-0
0-46-32-1-27-0
0-12-44-42-17-47-0
0-28-31-26-8-48-0
0-5-49-10-45-15-0
0-18-41-13-25-0
0-38-9-34-50-11-0
Cost: 476
0-14-24-43-23-6-0
0-25-13-41-18-0
0-46-27-1-32-0
0-38-9-34-50-11-0
0-48-8-26-31-28-0
0-12-44-42-17-47-0
0-15-45-10-49-5-0
Cost: 474
0-46-32-1-27-0
0-38-9-34-50-11-0
0-48-8-26-31-28-0
0-5-49-10-45-15-0
0-47-17-42-44-12-0
0-23-43-24-25-14-0
0-18-13-41-4-0
Cost: 474
0-27-1-32-46-0
0-28-31-26-8-48-0
0-5-49-10-45-15-0
0-18-41-13-25-0
0-11-50-34-9-38-0
0-47-17-42-44-12-0
0-6-23-43-24-14-0
Cost: 474
0-12-44-42-17-47-0
0-4-41-13-18-0
0-28-31-26-8-48-0
0-46-32-1-27-0
0-5-49-10-45-15-0
0-38-9-34-50-11-0
0-14-25-24-43-23-0
